(set-info :smt-lib-version 2.6)
(set-logic QF_SLIA)
(set-info :source |
Generated by: Joel Day, Thorsten Ehlers, Mitja Kulczynski, Federico Mora, Florin Manea, Dirk Nowotka, Danny Poulsen, Zhengyang Lu
Application: Test WOORPJE
Target solver: WOORPJE
Publications: Day, J. D., Ehlers, T., Kulczynski, M., Manea, F., Nowotka, D., & Poulsen, D. B. (2019). On solving word equations using SAT. In RP 2019
Description: Enriches a system of 30 word equations by suitable linear constraints
|)
(set-info :license "https://creativecommons.org/licenses/by/4.0/")
(set-info :category "random")
(set-info :status unknown)

(declare-fun I () String)
(declare-fun B () String)
(declare-fun J () String)
(assert (= (str.++  "fdbe" B "bec")  (str.++  I "dacdfffeadaabec" "") ))
(assert (= (str.++  "edcbfc" J "dbcadccbfeedbfedaafbfeccfdeafc")  (str.++  "edcbfc" J "dbcadccbfeedbfedaafbfeccfdeafc") ))
(assert (= (str.++  "aadeefbeeedbecfaafafeebb" J "fceceedcaebd")  (str.++  "aadeefbeeedbecfaafafeebbfbbefceceedcaebd" "") ))
(assert (>=(* (str.len J) 4) 16))
(assert (<=(* (str.len J) 11) 440))
(assert (>=(* (str.len I) 11) 253))
(assert (<=(* (str.len I) 16) 3520))
(check-sat)

(exit)
